
List of user-set options:

                                    Name   Value                used
                           compl_inf_tol = 1                     yes
                         constr_viol_tol = 1                     yes
                            dual_inf_tol = 1000                  yes
                           linear_solver = ma97                  yes
                              ma86_small = 1e-30                  no
                                  ma86_u = 0.0001                 no
                              ma97_order = best                  yes
                              ma97_small = 1e-30                 yes
                            ma97_switch1 = at_start              yes
                            ma97_switch2 = od_hd_reuse           yes
                                  ma97_u = 1e-06                 yes
                               ma97_umax = 0.5                   yes
                                max_iter = 2000                  yes
                    max_refinement_steps = 20                    yes
                    min_refinement_steps = 5                     yes
                                 mu_init = 1e-06                 yes
           mu_superlinear_decrease_power = 1.25                  yes
                   nlp_scaling_min_value = 1e-08                 yes
                        option_file_name = Preset_Case:_228_NCP.opt  yes
                             output_file = ./tmp/Preset_Case:_228_NCP.output  yes
                      print_user_options = yes                   yes
        required_infeasibility_reduction = 1                      no
                                     tol = 1e-08                 yes
                   warm_start_bound_frac = 1e-20                 yes
                   warm_start_bound_push = 1e-20                 yes
                   warm_start_init_point = yes                   yes
              warm_start_mult_bound_push = 1e-20                 yes
                warm_start_mult_init_max = 1e+40                 yes
             warm_start_slack_bound_frac = 1e-20                 yes
             warm_start_slack_bound_push = 1e-20                 yes

******************************************************************************
This program contains Ipopt, a library for large-scale nonlinear optimization.
 Ipopt is released as open source code under the Eclipse Public License (EPL).
         For more information visit http://projects.coin-or.org/Ipopt
******************************************************************************

This is Ipopt version 3.12.10, running with linear solver ma97.

Number of nonzeros in equality constraint Jacobian...:   117140
Number of nonzeros in inequality constraint Jacobian.:      213
Number of nonzeros in Lagrangian Hessian.............:    47462

Total number of variables............................:    29971
                     variables with only lower bounds:    11312
                variables with lower and upper bounds:    15132
                     variables with only upper bounds:        0
Total number of equality constraints.................:    29864
Total number of inequality constraints...............:       25
        inequality constraints with only lower bounds:        4
   inequality constraints with lower and upper bounds:        0
        inequality constraints with only upper bounds:       21

iter    objective    inf_pr   inf_du lg(mu)  ||d||  lg(rg) alpha_du alpha_pr  ls
   0 -2.8330019e-02 4.29e-01 1.00e+00  -6.0 0.00e+00    -  0.00e+00 0.00e+00   0
In iteration 0, 3 Slacks too small, adjusting variable bounds
   1 -2.8330019e-02 4.29e-01 7.98e+03  -6.0 7.01e+07  -4.0 6.51e-09 6.80e-18f  1
   2 -2.8360748e-02 4.27e-01 7.98e+03  -6.0 5.95e+02  -4.5 6.39e-04 5.00e-03f  1
   3 -2.8377237e-02 4.26e-01 7.89e+03  -6.0 5.07e+02  -5.0 1.09e-02 2.33e-03f  1
   4 -2.8392196e-02 4.25e-01 7.87e+03  -6.0 7.03e+02  -5.4 2.12e-03 1.68e-03h  1
   5 -2.8500383e-02 4.22e-01 7.72e+03  -6.0 5.83e+02  -5.0 2.00e-02 9.08e-03f  1
   6 -2.9366826e-02 4.10e-01 7.67e+03  -6.0 9.25e+02  -5.5 5.66e-03 2.76e-02h  1
   7 -3.0300686e-02 4.03e-01 7.02e+03  -6.0 7.61e+02  -6.0 8.52e-02 1.80e-02h  1
   8 -3.1957835e-02 9.47e-01 6.16e+03  -6.0 6.45e+02  -5.5 1.22e-01 6.04e-02h  1
   9 -3.2000886e-02 9.61e-01 5.89e+03  -6.0 6.17e+02  -6.0 4.52e-02 5.25e-03h  1
iter    objective    inf_pr   inf_du lg(mu)  ||d||  lg(rg) alpha_du alpha_pr  ls
  10 -3.2222622e-02 9.76e-01 4.96e+03  -6.0 5.76e+02  -5.6 1.57e-01 6.35e-03h  1
  11 -3.3107489e-02 1.57e+00 4.84e+03  -6.0 5.76e+02  -6.1 2.57e-02 2.20e-02h  1
  12 -3.8098476e-02 5.59e+00 4.27e+03  -6.0 5.72e+02  -5.6 2.46e-01 1.47e-01h  1
  13 -3.8046951e-02 5.57e+00 7.34e+03  -6.0 5.43e+02  -5.2 4.27e-02 6.90e-03h  1
  14 -3.7234562e-02 5.55e+00 7.25e+03  -6.0 1.48e+03  -5.7 5.86e-03 2.72e-03h  2
  15 -3.7071805e-02 5.51e+00 7.36e+03  -6.0 5.41e+02  -5.3 1.00e-02 7.53e-03h  1
  16 -3.6746966e-02 5.33e+00 4.41e+04  -6.0 5.41e+02  -4.8 2.64e-01 3.09e-02h  1
  17 -3.5703311e-02 5.28e+00 4.30e+04  -6.0 5.82e+02  -5.3 2.73e-02 9.10e-03h  1
  18 -3.5709683e-02 5.10e+00 4.00e+04  -6.0 6.73e+02  -5.8 1.28e-01 3.04e-02h  3
  19 -3.6126007e-02 4.87e+00 4.30e+04  -6.0 4.68e+02  -5.4 2.86e-01 6.84e-02h  1
iter    objective    inf_pr   inf_du lg(mu)  ||d||  lg(rg) alpha_du alpha_pr  ls
  20 -3.6218776e-02 4.84e+00 4.16e+04  -6.0 1.39e+03  -5.8 3.16e-02 5.91e-03h  4
  21 -3.6271353e-02 4.69e+00 1.47e+05  -6.0 5.31e+02  -5.4 9.28e-01 3.30e-02h  2
  22 -3.6359388e-02 4.92e+00 1.43e+05  -6.0 1.89e+03  -5.9 2.41e-02 2.98e-03h  4
  23 -3.6379665e-02 4.97e+00 1.44e+05  -6.0 5.50e+02  -5.5 2.55e-01 1.03e-02h  3
  24 -3.6418172e-02 5.02e+00 1.41e+05  -6.0 3.24e+03  -5.9 1.58e-02 6.75e-04h  5
  25 -3.6456769e-02 5.05e+00 1.35e+05  -6.0 5.94e+02  -5.5 9.93e-01 8.14e-03h  3
  26 -3.6484654e-02 5.17e+00 1.28e+05  -6.0 8.13e+02  -6.0 8.46e-02 7.45e-03h  4
  27 -3.6759832e-02 1.17e+01 1.21e+05  -6.0 9.95e+02  -6.5 7.43e-02 3.16e-02h  1
  28r-3.6759832e-02 1.17e+01 1.00e+03   0.5 0.00e+00  -5.1 0.00e+00 2.56e-07R  4
  29r-3.6567489e-02 1.17e+01 1.08e+03   0.5 4.89e+05    -  5.51e-09 5.97e-08f  1
iter    objective    inf_pr   inf_du lg(mu)  ||d||  lg(rg) alpha_du alpha_pr  ls
  30 -3.6567412e-02 1.17e+01 4.37e+03  -6.0 3.05e+02    -  6.31e-02 1.56e-05h  1
  31 -3.6566148e-02 1.17e+01 1.89e+05  -6.0 4.82e+02    -  2.96e-02 1.72e-04h  1
  32 -3.6562665e-02 1.17e+01 1.17e+06  -6.0 5.88e+02    -  8.31e-02 1.27e-03h  1
  33 -3.6540007e-02 1.13e+01 1.12e+06  -6.0 6.12e+02    -  3.79e-02 3.90e-02h  1
  34 -3.6575653e-02 1.06e+01 8.86e+05  -6.0 6.02e+02    -  7.09e-02 8.38e-02h  1
  35 -3.6381222e-02 1.00e+01 2.41e+05  -6.0 5.37e+02    -  6.96e-03 6.84e-02h  2
  36 -3.6100512e-02 1.00e+01 2.39e+05  -6.0 5.41e+02    -  5.02e-04 7.88e-04h  8
  37r-3.6100512e-02 1.00e+01 1.00e+03   0.5 0.00e+00    -  0.00e+00 2.74e-07R 20
  38r-3.5014127e-02 1.00e+01 2.99e+03   0.5 9.10e+03    -  1.55e-06 1.71e-07f  1
  39 -3.5014207e-02 1.00e+01 1.50e+03  -6.0 2.91e+02    -  1.78e-04 2.66e-05h  1
iter    objective    inf_pr   inf_du lg(mu)  ||d||  lg(rg) alpha_du alpha_pr  ls
  40 -3.5014222e-02 1.00e+01 4.60e+02  -6.0 2.96e+02    -  3.89e-05 1.60e-05h  1
  41 -3.5013276e-02 1.00e+01 4.54e+05  -6.0 3.84e+02    -  7.56e-02 1.44e-04h  1
  42 -3.5010825e-02 1.00e+01 4.54e+05  -6.0 4.29e+02    -  1.98e-04 2.89e-04h  1
  43 -3.5009911e-02 1.00e+01 7.39e+05  -6.0 4.66e+02    -  4.55e-02 1.11e-04h  1
  44 -3.4096843e-02 9.34e+00 1.72e+06  -6.0 5.29e+02    -  6.05e-04 9.78e-02h  1
  45 -3.3648581e-02 9.13e+00 1.68e+06  -6.0 5.09e+02    -  1.01e-01 2.33e-02h  1
  46 -3.2176542e-02 9.07e+00 1.66e+06  -6.0 5.09e+02    -  7.13e-03 6.58e-03h  4
  47 -3.2144158e-02 9.07e+00 1.66e+06  -6.0 5.06e+02    -  6.08e-03 4.63e-05h 11
  48 -2.7011816e-02 9.06e+00 1.66e+06  -6.0 4.95e+02    -  1.29e-03 1.29e-03s 20
  49  4.0442466e-02 8.91e+00 1.63e+06  -6.0 4.95e+02    -  1.71e-02 1.71e-02s 20
iter    objective    inf_pr   inf_du lg(mu)  ||d||  lg(rg) alpha_du alpha_pr  ls
  50  1.2473639e-01 8.72e+00 1.60e+06  -6.0 4.90e+02    -  2.26e-02 2.26e-02s 20
  51  2.9581105e-01 8.34e+00 1.52e+06  -6.0 4.83e+02    -  4.95e-02 4.95e-02s 20
  52r 2.9581105e-01 8.34e+00 1.00e+03   0.4 0.00e+00    -  0.00e+00 0.00e+00R  1
  53r 2.9585646e-01 8.34e+00 3.24e+03   0.4 1.03e+05    -  1.97e-06 4.70e-07f  1
  54r 2.9619280e-01 8.31e+00 3.50e+03   0.4 7.19e+03    -  2.85e-06 5.01e-06f  1
  55r 2.9722467e-01 8.20e+00 4.47e+03   0.4 5.46e+03    -  3.85e-05 1.61e-05f  1
  56r 3.0344654e-01 7.53e+00 8.54e+03   0.4 3.67e+03    -  1.54e-04 9.71e-05f  1
  57r 3.3042285e-01 5.20e+00 4.46e+03   0.4 2.54e+03    -  2.76e-04 3.95e-04f  1
  58r 4.0294834e-01 3.05e+00 1.42e+04   0.4 1.60e+03    -  1.42e-03 9.47e-04f  1
  59  4.0246262e-01 3.05e+00 3.16e+04  -6.0 2.24e+02    -  1.76e-02 1.04e-03h  1
iter    objective    inf_pr   inf_du lg(mu)  ||d||  lg(rg) alpha_du alpha_pr  ls
  60  4.0115347e-01 3.04e+00 9.07e+04  -6.0 2.60e+02    -  1.05e-03 2.89e-03h  1
  61  3.9437513e-01 2.99e+00 8.94e+04  -6.0 2.51e+02    -  3.21e-02 1.50e-02h  1
  62  3.8760789e-01 2.95e+00 8.80e+04  -6.0 2.71e+02    -  2.15e-02 1.53e-02h  1
  63  3.7089881e-01 2.83e+00 8.46e+04  -6.0 2.89e+02    -  1.68e-02 3.84e-02h  1
  64  3.4661371e-01 2.67e+00 7.96e+04  -6.0 3.25e+02    -  2.04e-02 5.86e-02h  1
  65  3.3684001e-01 2.60e+00 7.76e+04  -6.0 3.45e+02    -  9.32e-02 2.53e-02h  1
  66  3.3096127e-01 2.56e+00 7.64e+04  -6.0 3.40e+02    -  2.68e-02 1.57e-02h  1
  67  3.0889531e-01 2.40e+00 7.13e+04  -6.0 3.35e+02    -  1.31e-01 6.66e-02h  1
  68  3.0250669e-01 2.35e+00 7.01e+04  -6.0 3.13e+02    -  7.81e-05 1.74e-02h  1
  69  2.8536305e-01 2.21e+00 6.57e+04  -6.0 3.07e+02    -  1.24e-01 6.29e-02h  1
iter    objective    inf_pr   inf_du lg(mu)  ||d||  lg(rg) alpha_du alpha_pr  ls
  70  2.6800538e-01 2.05e+00 6.11e+04  -6.0 2.87e+02    -  4.26e-02 6.96e-02h  1
  71  2.6302623e-01 2.00e+00 5.96e+04  -6.0 2.65e+02    -  2.10e-01 2.44e-02h  1
  72  2.2973752e-01 1.82e+00 5.23e+04  -6.0 2.86e+02    -  3.46e-01 1.23e-01h  1
  73  1.7881415e-01 1.65e+00 4.26e+04  -6.0 3.05e+02    -  4.24e-01 1.84e-01h  1
  74  1.5080638e-01 1.45e+00 3.76e+04  -6.0 3.50e+02    -  3.10e-01 1.18e-01h  1
  75  1.5069372e-01 1.45e+00 3.76e+04  -6.0 1.43e+03    -  5.60e-02 2.09e-04h  1
  76  1.4959933e-01 1.44e+00 3.74e+04  -6.0 1.43e+03    -  6.83e-02 6.00e-03h  1
  77  1.4943975e-01 1.44e+00 3.72e+04  -6.0 1.24e+03    -  3.31e-02 3.46e-03h  1
  78  1.5563894e-01 1.43e+00 3.71e+04  -6.0 1.02e+03    -  8.55e-02 4.03e-03h  1
  79  4.1393904e-01 1.32e+00 3.41e+04  -6.0 1.11e+03    -  6.53e-02 8.05e-02h  1
iter    objective    inf_pr   inf_du lg(mu)  ||d||  lg(rg) alpha_du alpha_pr  ls
  80  6.6398901e-01 1.04e+00 2.76e+04  -6.0 4.12e+02    -  2.97e-01 2.51e-01h  1
  81  6.6398763e-01 1.04e+00 9.60e+05  -6.0 3.89e+02    -  5.12e-01 3.14e-06h  2
  82  6.2855970e-01 9.78e-01 1.31e+06  -6.0 8.51e+02  -5.6 3.24e-01 7.07e-02h  3
  83  5.0750235e-01 8.36e-01 1.76e+06  -6.0 4.22e+02  -5.2 5.48e-01 2.44e-01h  2
  84  4.9587415e-01 8.23e-01 1.61e+06  -6.0 2.60e+03  -5.7 1.36e-01 1.69e-02h  3
  85  2.2167087e-01 7.21e-01 7.94e+05  -6.0 3.78e+02    -  5.06e-01 5.05e-01H  1
  86  2.1920222e-01 7.15e-01 4.06e+05  -6.0 3.64e+02    -  4.27e-01 8.06e-03h  1
  87  1.2264391e-01 5.27e-01 3.48e+05  -6.0 1.42e+02  -5.2 4.20e-01 3.33e-01h  1
  88  1.2263952e-01 5.27e-01 9.31e+05  -6.0 8.07e+01  -3.9 3.41e-02 2.20e-05h  1
  89  5.4848981e-02 3.37e-01 1.71e+06  -6.0 4.84e+01  -4.4 1.11e-02 3.66e-01f  1
iter    objective    inf_pr   inf_du lg(mu)  ||d||  lg(rg) alpha_du alpha_pr  ls
  90  2.6683560e-02 3.01e-01 1.47e+06  -6.0 1.87e+02  -4.9 1.14e-01 2.28e-01h  1
  91  2.6228225e-02 2.99e-01 2.19e+06  -6.0 3.37e+01  -3.5 1.92e-02 5.04e-03h  1
  92  2.0678370e-02 2.82e-01 1.16e+06  -6.0 9.91e+01  -4.0 2.06e-03 5.91e-02f  1
  93  2.0503610e-02 2.81e-01 2.50e+06  -6.0 5.64e+01  -4.5 2.17e-01 2.12e-03h  1
  94  9.0404959e-03 2.38e-01 1.96e+06  -6.0 1.26e+02  -5.0 2.50e-01 1.53e-01f  1
  95 -1.6715749e-02 2.81e-01 3.27e+05  -6.0 1.05e+02  -4.5 1.42e-01 4.38e-01h  1
  96 -3.3820463e-02 1.73e-01 4.85e+07  -6.0 6.19e+01  -4.1 1.15e-03 4.80e-01h  1
  97 -3.5756394e-02 1.59e-01 4.46e+07  -6.0 5.21e+01  -4.6 5.08e-02 7.85e-02h  1
  98 -3.9463642e-02 1.36e-01 3.67e+07  -6.0 9.74e+01  -5.1 2.85e-03 1.78e-01h  1
  99 -4.4955988e-02 1.30e-01 2.54e+07  -6.0 3.93e+01  -4.6 1.85e-01 3.08e-01h  1
iter    objective    inf_pr   inf_du lg(mu)  ||d||  lg(rg) alpha_du alpha_pr  ls
 100 -4.4918810e-02 1.30e-01 2.54e+07  -6.0 1.11e+03  -5.1 2.00e-03 8.63e-04h  1
 101 -4.9096732e-02 8.03e-01 2.29e+07  -6.0 8.22e+02  -5.6 6.76e-02 9.77e-02f  1
 102 -4.9098200e-02 8.03e-01 2.29e+07  -6.0 1.15e+04    -  2.10e-02 3.25e-05h  1
 103 -5.0749103e-02 2.44e+00 2.21e+07  -6.0 1.19e+04    -  6.55e-02 3.60e-02f  1
 104 -5.3705680e-02 1.50e+01 2.05e+07  -6.0 1.35e+04    -  6.58e-02 7.29e-02h  1
 105 -5.3705781e-02 1.50e+01 2.05e+07  -6.0 5.89e+03    -  8.99e-02 1.73e-05h  1
 106 -5.3399512e-02 1.49e+01 2.04e+07  -6.0 7.89e+03    -  6.20e-02 6.24e-03h  4
 107 -5.3388040e-02 1.48e+01 2.02e+07  -6.0 6.54e+03    -  6.48e-02 1.04e-02h  5
 108 -5.3346705e-02 1.48e+01 2.00e+07  -6.0 6.70e+03    -  1.70e-01 8.94e-03h  5
 109r-5.3346705e-02 1.48e+01 1.00e+03   0.9 0.00e+00  -4.3 0.00e+00 3.04e-07R  4
iter    objective    inf_pr   inf_du lg(mu)  ||d||  lg(rg) alpha_du alpha_pr  ls
 110r-5.2948160e-02 1.48e+01 1.00e+03   0.9 1.59e+06    -  2.88e-08 3.76e-08f  1
 111 -5.3030085e-02 1.45e+01 1.13e+04  -6.0 1.05e+02    -  1.39e-06 1.58e-02h  1
 112 -5.3179751e-02 1.40e+01 1.09e+04  -6.0 1.08e+02    -  1.51e-02 3.38e-02h  1
 113 -5.3338328e-02 1.35e+01 1.05e+04  -6.0 1.14e+02    -  2.21e-02 3.91e-02h  1
 114 -5.3667109e-02 1.22e+01 9.53e+03  -6.0 1.17e+02    -  2.62e-02 9.24e-02h  1
 115 -5.3830370e-02 1.19e+01 9.29e+03  -6.0 1.32e+01    -  1.05e-02 2.51e-02h  1
 116 -5.5947962e-02 8.01e+00 6.24e+03  -6.0 1.33e+01    -  2.99e-01 3.29e-01h  1
 117 -5.8907164e-02 2.58e+00 2.01e+03  -6.0 8.54e+00    -  5.99e-02 6.78e-01h  1
 118 -5.9692975e-02 1.15e+00 8.94e+02  -6.0 2.04e+00    -  7.43e-02 5.54e-01h  1
 119 -5.9907127e-02 7.64e-01 5.95e+02  -6.0 8.96e-01    -  4.74e-01 3.34e-01h  1
iter    objective    inf_pr   inf_du lg(mu)  ||d||  lg(rg) alpha_du alpha_pr  ls
 120 -5.9929748e-02 7.23e-01 5.63e+02  -6.0 2.19e+00    -  5.42e-01 5.44e-02h  1
 121 -6.0117211e-02 4.22e-01 3.29e+02  -6.0 1.97e+00    -  8.25e-01 4.16e-01h  1
 122 -6.0766146e-02 1.14e-03 1.40e+02  -6.0 5.66e+00    -  8.45e-01 1.00e+00h  1
 123 -6.2138209e-02 3.24e-02 8.48e+01  -6.0 3.49e+01    -  5.82e-01 3.97e-01h  1
 124 -6.8908133e-02 2.11e-01 4.78e+01  -6.0 8.14e+01    -  6.90e-01 1.00e+00f  1
 125 -6.9982359e-02 1.92e-01 4.29e+01  -6.0 1.27e+02    -  7.22e-02 1.03e-01h  1
 126 -7.2007790e-02 1.35e-01 3.32e+01  -6.0 1.18e+02    -  2.37e-01 2.88e-01h  1
 127 -7.3724536e-02 2.17e-01 2.93e+01  -6.0 1.23e+02    -  5.15e-01 2.80e-01h  1
 128 -7.7275061e-02 8.82e-01 4.13e+01  -6.0 2.17e+02    -  5.05e-01 3.25e-01h  1
 129 -8.2833671e-02 1.71e+00 6.03e+01  -6.0 3.07e+02    -  7.15e-01 4.07e-01h  1
iter    objective    inf_pr   inf_du lg(mu)  ||d||  lg(rg) alpha_du alpha_pr  ls
 130 -8.3086495e-02 1.69e+00 5.93e+01  -6.0 1.26e+03    -  1.15e-02 1.56e-02h  1
 131 -8.6914309e-02 2.05e+00 4.71e+01  -6.0 1.29e+03    -  4.34e-01 2.32e-01h  1
 132 -8.7643487e-02 2.12e+00 7.78e+01  -6.0 2.29e+03    -  1.53e-01 3.77e-02h  1
 133 -9.0970261e-02 5.33e+00 2.29e+02  -6.0 2.60e+03    -  5.95e-01 1.64e-01h  1
 134 -9.0897396e-02 3.16e+00 3.48e+02  -6.0 3.04e+00  -4.8 2.04e-01 4.07e-01h  1
 135 -9.0878477e-02 2.60e+00 2.28e+02  -6.0 2.87e+00  -5.2 2.71e-01 1.76e-01h  1
 136 -9.0839917e-02 6.86e-01 5.41e+01  -6.0 2.53e+00  -5.7 7.00e-01 7.37e-01h  1
 137 -9.0951416e-02 3.17e-01 3.36e+01  -6.0 6.41e+00  -6.2 1.32e-02 5.38e-01h  1
 138 -9.1385186e-02 6.89e-03 4.98e+02  -6.0 1.79e+01  -6.7 5.72e-01 1.00e+00h  1
 139 -9.1471633e-02 6.77e-03 3.65e+03  -6.0 6.39e+01  -7.1 3.24e-01 5.02e-02h  1
iter    objective    inf_pr   inf_du lg(mu)  ||d||  lg(rg) alpha_du alpha_pr  ls
 140 -9.5099092e-02 1.13e+00 6.52e+02  -6.0 1.62e+02  -7.6 8.84e-01 1.00e+00h  1
 141 -9.5519113e-02 8.56e-01 5.86e+03  -6.0 9.65e+01  -7.2 3.48e-01 2.04e-01h  1
 142 -9.7258589e-02 6.13e-01 3.90e+04  -6.0 5.02e+02  -7.7 7.13e-01 2.16e-01h  1
 143 -9.8950871e-02 7.43e-01 9.44e+06  -6.0 5.22e+02  -7.2 1.18e-03 1.49e-01h  1
 144 -1.0118367e-01 6.13e-01 3.68e+06  -6.0 8.67e+01  -6.8 1.16e-01 6.08e-01h  1
 145 -1.0052885e-01 1.06e-01 1.04e+04  -6.0 5.72e+01  -6.4 1.13e-01 1.00e+00h  1
 146 -1.0298341e-01 1.17e-01 2.63e+03  -6.0 9.93e+01  -6.9 9.36e-01 7.48e-01h  1
 147 -1.0206547e-01 1.07e-01 1.89e+01  -6.0 7.54e+01  -7.3 7.26e-01 1.00e+00h  1
 148 -1.0459344e-01 5.70e-01 1.77e+01  -6.0 2.29e+02  -7.8 6.97e-01 7.02e-01h  1
 149 -1.0748079e-01 4.20e+00 3.05e+01  -6.0 4.74e+02  -8.3 7.74e-01 1.00e+00h  1
iter    objective    inf_pr   inf_du lg(mu)  ||d||  lg(rg) alpha_du alpha_pr  ls
 150 -1.0808830e-01 4.15e-01 2.12e+00  -6.0 1.55e+02  -7.9 1.00e+00 1.00e+00h  1
 151 -1.0900902e-01 6.74e-01 9.63e+00  -6.0 3.51e+02  -8.3 2.58e-01 4.48e-01h  1
 152 -1.0927978e-01 7.47e-01 2.51e+00  -6.0 1.01e+03  -8.8 1.04e-01 5.96e-02h  1
 153 -1.0958592e-01 5.66e-01 1.17e+02  -6.0 3.14e+02  -8.4 1.00e+00 1.91e-01h  1
 154 -1.1011578e-01 7.78e-01 1.41e+02  -6.0 8.77e+02  -8.9 5.92e-01 1.42e-01h  1
 155 -1.1168830e-01 1.65e+00 3.80e+00  -6.0 2.97e+02  -8.4 1.00e+00 1.00e+00h  1
 156 -1.1234796e-01 1.67e+00 1.30e+02  -6.0 6.43e+02  -8.9 3.92e-01 2.28e-01h  1
 157 -1.1346443e-01 1.15e+00 1.39e+02  -6.0 2.60e+02  -8.5 5.90e-01 8.90e-01h  1
 158 -1.1391987e-01 1.48e+00 7.03e+02  -6.0 8.35e+02  -9.0 5.15e-01 2.47e-01h  1
 159 -1.1481611e-01 1.61e+00 1.05e+03  -6.0 4.04e+02  -8.6 1.00e+00 5.77e-01h  1
iter    objective    inf_pr   inf_du lg(mu)  ||d||  lg(rg) alpha_du alpha_pr  ls
 160 -1.1738451e-01 1.24e+01 4.80e+02  -6.0 2.30e+03  -9.0 5.22e-01 5.22e-01h  1
 161 -1.1844591e-01 1.61e+01 4.45e+02  -6.0 1.51e+03  -8.6 2.13e-01 2.88e-01h  1
 162 -1.1980413e-01 1.48e+01 9.07e+03  -6.0 1.61e+03  -9.1 2.41e-02 4.30e-01h  1
 163 -1.2026894e-01 1.63e+01 3.23e+03  -6.0 8.98e+03  -9.6 1.18e-01 3.62e-02h  1
 164 -1.2108551e-01 9.28e+00 1.85e+03  -6.0 5.01e+02  -9.1 5.17e-01 4.57e-01h  1
 165 -1.2195260e-01 8.60e+00 1.02e+04  -6.0 5.13e+03  -9.6 5.79e-02 1.06e-01h  1
 166 -1.2294777e-01 8.34e+00 2.81e+07  -6.0 1.79e+03  -9.2 3.33e-04 1.47e-01h  1
 167 -1.2392201e-01 7.69e+00 2.55e+07  -6.0 5.05e+03  -9.7 9.72e-02 9.03e-02h  1
 168 -1.2467400e-01 3.34e+01 1.05e+07  -6.0 2.17e+03  -9.2 6.08e-02 5.88e-01h  1
 169 -1.2691459e-01 1.64e+01 1.44e+03  -6.0 1.30e+03  -9.7 4.15e-02 1.00e+00h  1
iter    objective    inf_pr   inf_du lg(mu)  ||d||  lg(rg) alpha_du alpha_pr  ls
 170 -1.2733968e-01 2.80e+00 5.68e+02  -6.0 3.68e+01  -7.5 4.35e-01 8.29e-01h  1
 171 -1.2756437e-01 2.10e+00 3.55e+02  -6.0 1.28e+02  -8.0 4.10e-01 2.52e-01h  1
 172 -1.2780229e-01 1.91e+00 2.85e+02  -6.0 3.97e+02  -8.4 2.23e-01 9.05e-02h  1
 173 -1.2813190e-01 1.66e+00 2.10e+02  -6.0 6.50e+02  -8.9 3.02e-01 1.47e-01h  1
 174 -1.2920794e-01 3.63e+00 1.80e+02  -6.0 1.90e+03  -9.4 1.24e-01 1.79e-01h  1
 175 -1.2938283e-01 3.24e+00 1.60e+02  -6.0 1.74e+03  -9.9 1.09e-01 1.09e-01h  1
 176 -1.2960946e-01 3.02e+00 1.51e+02  -6.0 4.02e+03 -10.3 5.85e-02 7.19e-02h  1
 177 -1.2982296e-01 2.46e+00 7.48e+01  -6.0 1.62e+03  -9.9 6.17e-01 1.83e-01h  1
 178 -1.3028141e-01 1.94e+00 5.28e+01  -6.0 4.54e+03 -10.4 3.61e-01 2.11e-01h  1
 179 -1.3046550e-01 1.27e+00 6.81e+01  -6.0 9.77e+02 -10.0 1.00e+00 3.48e-01h  1
iter    objective    inf_pr   inf_du lg(mu)  ||d||  lg(rg) alpha_du alpha_pr  ls
 180 -1.3069443e-01 1.05e+00 9.10e+01  -6.0 7.78e+03 -10.4 5.87e-01 1.73e-01h  1
 181 -1.3091348e-01 1.74e+00 1.31e+02  -6.0 2.27e+03 -10.0 9.56e-01 2.88e-01h  1
 182 -1.3162074e-01 1.61e+01 1.66e+03  -6.0 3.81e+03 -10.5 4.74e-02 4.93e-01h  1
 183 -1.3166898e-01 1.59e+01 1.46e+03  -6.0 6.77e+03 -10.1 3.45e-02 1.82e-02h  1
 184 -1.3188546e-01 1.34e+01 2.58e+03  -6.0 7.76e+02  -7.8 3.37e-03 1.57e-01h  1
 185 -1.3206686e-01 1.21e+01 2.35e+03  -6.0 3.26e+02  -7.4 1.47e-02 9.83e-02f  1
 186 -1.3213986e-01 9.93e+00 1.93e+03  -6.0 1.29e+02  -7.0 5.84e-02 1.77e-01h  1
 187 -1.3252727e-01 8.13e+00 1.58e+03  -6.0 2.60e+02  -7.5 6.97e-02 1.81e-01h  1
 188 -1.3326474e-01 2.43e+01 8.96e+02  -6.0 1.11e+02  -7.0 8.63e-02 4.17e-01h  1
 189 -1.3327047e-01 1.77e+01 5.91e+02  -6.0 9.51e+01  -7.5 1.55e-01 3.53e-01h  1
iter    objective    inf_pr   inf_du lg(mu)  ||d||  lg(rg) alpha_du alpha_pr  ls
 190 -1.3332394e-01 1.58e+01 5.26e+02  -6.0 9.63e+01  -8.0 1.82e-01 1.12e-01h  1
 191 -1.3356635e-01 1.40e+01 4.66e+02  -6.0 1.88e+02  -8.5 2.76e-01 1.35e-01h  1
 192 -1.3392155e-01 8.75e+00 2.88e+02  -6.0 3.56e+02  -8.9 3.22e-01 3.78e-01h  1
 193 -1.3419242e-01 4.57e+00 1.38e+02  -6.0 2.65e+02  -9.4 4.13e-01 5.12e-01h  1
 194 -1.3439002e-01 3.97e+00 3.86e+02  -6.0 7.21e+02  -9.9 2.60e-01 1.48e-01h  1
 195 -1.3504660e-01 3.01e+01 9.50e+02  -6.0 1.56e+04 -10.4 1.20e-01 4.66e-01H  1
 196 -1.3528059e-01 1.12e+01 1.34e+03  -6.0 1.11e+03  -9.9 3.37e-01 4.52e-01h  1
 197 -1.3576248e-01 9.67e+00 8.79e+01  -6.0 6.96e+02  -9.5 1.00e+00 1.00e+00h  1
 198 -1.3586913e-01 9.40e+00 4.92e+03  -6.0 2.86e+03 -10.0 2.14e-01 8.46e-02h  1
 199 -1.3600935e-01 1.01e+01 7.66e+03  -6.0 1.31e+04 -10.5 9.63e-02 3.65e-02h  1
iter    objective    inf_pr   inf_du lg(mu)  ||d||  lg(rg) alpha_du alpha_pr  ls
 200 -1.3620253e-01 1.00e+01 7.13e+03  -6.0 1.07e+04 -11.0 7.24e-02 7.20e-02h  1
 201 -1.3658161e-01 1.01e+01 5.09e+03  -6.0 3.54e+04 -11.4 1.27e-02 3.02e-02h  1
 202 -1.3674243e-01 1.26e+01 4.90e+03  -6.0 5.99e+02  -8.3 2.90e-02 2.84e-02h  1
 203 -1.3676425e-01 1.38e+01 2.63e+04  -6.0 7.93e+03    -  1.17e-02 1.96e-02h  1
 204 -1.3682743e-01 1.54e+01 2.41e+04  -6.0 6.64e+03    -  5.27e-02 8.22e-02h  1
 205 -1.3690349e-01 2.50e+01 2.21e+04  -6.0 6.54e+03    -  1.66e-01 7.78e-02h  1
 206 -1.3701708e-01 2.15e+01 1.89e+04  -6.0 5.48e+03    -  1.57e-01 1.46e-01h  1
 207 -1.3715218e-01 1.75e+01 1.54e+04  -6.0 4.87e+03    -  4.53e-01 1.85e-01h  1
 208 -1.3781864e-01 6.34e+00 7.26e+01  -6.0 4.12e+03    -  2.89e-01 1.00e+00h  1
 209 -1.3781577e-01 2.30e+00 4.39e+01  -6.0 1.59e+02  -8.8 5.93e-01 6.37e-01h  1
iter    objective    inf_pr   inf_du lg(mu)  ||d||  lg(rg) alpha_du alpha_pr  ls
 210 -1.3783462e-01 9.80e-01 5.69e+01  -6.0 1.83e+02  -9.3 1.00e+00 1.00e+00h  1
 211 -1.3788879e-01 9.00e-01 8.02e+01  -6.0 2.72e+02  -9.7 4.20e-01 6.79e-01h  1
 212 -1.3794042e-01 1.79e+00 7.98e+01  -6.0 1.04e+03 -10.2 3.75e-01 2.66e-01h  1
 213 -1.3810819e-01 1.31e+00 1.35e+02  -6.0 2.14e+02  -8.9 4.39e-01 1.00e+00h  1
 214 -1.3813703e-01 1.12e+00 2.06e+02  -6.0 2.70e+02  -9.4 1.92e-01 2.18e-01h  1
 215 -1.3832740e-01 3.12e+01 4.56e+02  -6.0 1.33e+03  -9.8 2.35e-01 9.94e-01h  1
 216 -1.3849705e-01 2.69e+01 3.77e+02  -6.0 4.69e+02  -8.5 3.83e-02 1.38e-01h  2
 217 -1.3817884e-01 3.14e-01 3.95e+01  -6.0 3.84e+01  -7.2 1.67e-01 1.00e+00h  1
 218 -1.3818901e-01 8.38e-02 3.17e+00  -6.0 2.51e+01  -7.6 8.17e-01 1.00e+00h  1
 219 -1.3822583e-01 9.83e-02 4.58e-01  -6.0 5.97e+01  -8.1 1.00e+00 1.00e+00h  1
iter    objective    inf_pr   inf_du lg(mu)  ||d||  lg(rg) alpha_du alpha_pr  ls
 220 -1.3827087e-01 8.92e-01 6.43e+00  -6.0 1.80e+02  -8.6 1.00e+00 1.00e+00h  1
 221 -1.3830251e-01 1.11e+00 5.50e+01  -6.0 4.68e+02  -9.1 6.50e-01 2.83e-01h  1
 222 -1.3831419e-01 1.28e+00 2.49e+03  -6.0 1.11e+03    -  4.87e-01 2.29e-01h  1
 223 -1.3830204e-01 1.16e+00 2.77e+03  -6.0 7.58e+02    -  5.02e-01 3.65e-01h  1
 224 -1.3830080e-01 1.14e+00 5.90e+03  -6.0 6.29e+02    -  2.97e-01 1.77e-02h  1
 225 -1.3824758e-01 9.67e-01 4.04e+05  -6.0 2.72e+02    -  2.30e-02 8.04e-01h  1
 226 -1.3824067e-01 6.13e-01 2.57e+05  -6.0 2.42e+02  -9.6 7.55e-01 3.80e-01h  1
 227 -1.3820546e-01 3.59e+00 1.76e+03  -6.0 4.37e+02 -10.0 2.04e-01 1.00e+00h  1
 228 -1.3817198e-01 3.66e+00 1.50e+03  -6.0 1.22e+03  -9.6 1.17e-01 1.51e-01h  2
 229 -1.3822262e-01 2.36e+00 6.80e+02  -6.0 1.26e+03 -10.1 8.54e-01 5.31e-01H  1
iter    objective    inf_pr   inf_du lg(mu)  ||d||  lg(rg) alpha_du alpha_pr  ls
 230 -1.3820241e-01 2.35e+00 6.16e+02  -6.0 1.76e+03    -  5.42e-01 8.78e-02h  1
 231 -1.3813723e-01 6.03e+00 5.31e+02  -6.0 3.56e+03    -  4.23e-01 1.36e-01h  2
 232 -1.3816296e-01 1.79e+00 6.01e+01  -6.0 1.94e+02  -9.7 5.97e-01 1.00e+00h  1
 233 -1.3813547e-01 2.14e+00 5.07e+01  -6.0 3.58e+03    -  2.61e-02 1.00e-01H  1
 234 -1.3801267e-01 1.44e+01 2.54e+01  -6.0 9.35e+02    -  5.58e-01 1.00e+00h  1
 235 -1.3800660e-01 3.31e-01 6.93e-02  -6.0 1.27e+02  -9.2 1.00e+00 1.00e+00h  1
 236 -1.3800609e-01 2.38e-01 4.37e+00  -6.0 1.10e+02    -  4.75e-01 2.79e-01h  2
 237 -1.3800657e-01 3.52e-01 3.59e+01  -6.0 7.16e+02    -  1.00e+00 5.41e-02h  2
 238 -1.3800712e-01 1.72e-01 2.13e+00  -6.0 9.57e+01    -  9.25e-01 1.00e+00h  1
 239 -1.3800943e-01 2.15e-01 4.45e+00  -6.0 1.70e+02    -  1.00e+00 5.00e-01h  2
iter    objective    inf_pr   inf_du lg(mu)  ||d||  lg(rg) alpha_du alpha_pr  ls
 240 -1.3801181e-01 8.13e-02 6.04e-02  -6.0 6.71e+01    -  1.00e+00 1.00e+00h  1
 241 -1.3801255e-01 1.69e-03 1.83e-03  -6.0 9.73e+00    -  1.00e+00 1.00e+00h  1
 242 -1.3801255e-01 1.28e-06 3.02e-07  -6.0 2.68e-01    -  1.00e+00 1.00e+00h  1
 243 -1.3855156e-01 6.50e+00 1.16e+01  -7.5 3.73e+03    -  1.71e-01 1.73e-01h  1
 244 -1.3874254e-01 7.36e+00 2.56e+01  -7.5 4.03e+03    -  3.42e-02 7.08e-02h  1
 245 -1.3912806e-01 1.01e+01 2.12e+01  -7.5 2.55e+03    -  3.45e-01 2.32e-01h  1
 246 -1.3929692e-01 1.07e+01 1.86e+01  -7.5 2.43e+03    -  1.61e-01 1.81e-01h  1
 247 -1.3930080e-01 1.07e+01 6.96e+01  -7.5 1.20e+03  -9.7 4.59e-01 5.49e-03h  1
 248 -1.3973776e-01 2.60e+01 7.16e+01  -7.5 2.45e+03    -  7.95e-03 5.68e-01h  1
 249 -1.3978344e-01 2.08e+01 6.73e+01  -7.5 1.18e+03    -  6.23e-02 2.00e-01h  1
iter    objective    inf_pr   inf_du lg(mu)  ||d||  lg(rg) alpha_du alpha_pr  ls
 250 -1.3989777e-01 1.14e+01 5.49e+01  -7.5 1.10e+03    -  2.87e-01 4.54e-01f  1
 251 -1.3992578e-01 9.11e+00 3.87e+01  -7.5 1.32e+03    -  4.17e-01 2.03e-01h  1
 252 -1.3997949e-01 6.41e+00 2.77e+01  -7.5 8.99e+02    -  7.15e-01 3.19e-01h  1
 253 -1.4004974e-01 3.57e+00 1.11e+01  -7.5 6.44e+02    -  1.79e-01 5.29e-01h  1
 254 -1.4013896e-01 2.42e+00 8.57e+01  -7.5 3.68e+02    -  3.33e-01 8.22e-01h  1
 255 -1.4017996e-01 1.34e+00 5.09e+01  -7.5 2.64e+02    -  3.98e-01 3.96e-01h  1
 256 -1.4024328e-01 7.45e-01 9.27e+01  -7.5 2.15e+02    -  7.91e-01 6.22e-01h  1
 257 -1.4027022e-01 1.38e+00 2.55e+02  -7.5 1.03e+03    -  4.13e-01 2.53e-01h  1
 258 -1.4031121e-01 7.02e-01 1.02e+03  -7.5 1.69e+02    -  1.00e+00 3.83e-01h  1
 259 -1.4036557e-01 1.59e+00 5.44e+02  -7.5 4.93e+02    -  4.81e-01 4.74e-01h  1
iter    objective    inf_pr   inf_du lg(mu)  ||d||  lg(rg) alpha_du alpha_pr  ls
 260 -1.4038379e-01 2.33e+00 1.03e+03  -7.5 2.50e+03    -  2.79e-01 1.44e-01h  1
 261 -1.4039576e-01 2.16e+00 9.22e+02  -7.5 6.34e+02 -10.2 8.74e-02 9.31e-02h  1
 262 -1.4044287e-01 2.66e+00 1.79e+03  -7.5 9.09e+02 -10.7 7.51e-01 3.51e-01h  1
 263 -1.4044502e-01 3.07e+00 6.95e+02  -7.5 2.06e+04    -  1.50e-01 1.32e-02h  1
 264 -1.4045879e-01 4.93e+00 3.33e+03  -7.5 5.28e+03    -  2.27e-01 7.72e-02h  1
 265 -1.4048943e-01 3.37e+01 4.42e+03  -7.5 1.63e+03    -  3.55e-02 1.00e+00h  1
 266 -1.4049864e-01 3.58e+01 4.35e+03  -7.5 2.75e+04    -  9.06e-03 1.60e-02h  2
 267 -1.4050210e-01 3.32e+01 4.07e+03  -7.5 1.84e+03 -11.1 6.99e-01 8.04e-02h  1
 268 -1.4052109e-01 4.07e+01 3.48e+03  -7.5 6.51e+03    -  6.43e-02 1.44e-01h  1
 269 -1.4055361e-01 6.15e+01 1.39e+03  -7.5 2.04e+03    -  5.97e-01 1.00e+00h  1
iter    objective    inf_pr   inf_du lg(mu)  ||d||  lg(rg) alpha_du alpha_pr  ls
 270 -1.4057171e-01 5.21e+01 3.11e+02  -7.5 2.20e+03 -11.6 5.22e-02 5.61e-01h  1
 271 -1.4055249e-01 2.26e+01 7.65e+02  -7.5 1.21e+03    -  5.19e-01 1.00e+00h  1
 272 -1.4058127e-01 6.96e+01 9.24e+02  -7.5 8.05e+03 -12.1 4.19e-02 2.27e-01h  1
 273 -1.4058208e-01 6.71e+01 8.90e+02  -7.5 1.69e+03    -  1.17e-02 3.74e-02h  1
 274 -1.4058060e-01 5.68e+01 7.52e+02  -7.5 5.06e+02  -9.9 7.69e-02 1.54e-01h  1
 275 -1.4058265e-01 2.32e+00 1.66e+02  -7.5 3.12e+02    -  2.35e-01 1.00e+00h  1
 276 -1.4058461e-01 3.15e-01 7.75e+00  -7.5 1.32e+02    -  9.14e-01 1.00e+00h  1
 277 -1.4060902e-01 5.58e+01 1.64e+02  -7.5 7.07e+03    -  5.18e-02 2.54e-01h  1
 278 -1.4060865e-01 5.52e+01 1.62e+02  -7.5 2.63e+03    -  4.44e-02 1.06e-02h  1
 279 -1.4060362e-01 1.51e+00 8.00e+03  -7.5 3.36e+02    -  2.29e-02 1.00e+00h  1
iter    objective    inf_pr   inf_du lg(mu)  ||d||  lg(rg) alpha_du alpha_pr  ls
 280 -1.4060353e-01 3.18e-04 2.56e+00  -7.5 2.61e+00    -  1.10e-01 1.00e+00h  1
 281 -1.4060719e-01 2.73e+00 3.85e+00  -7.5 2.82e+02    -  7.98e-01 1.00e+00h  1
 282 -1.4060965e-01 6.88e-01 4.14e+00  -7.5 1.89e+02    -  1.59e-01 1.00e+00h  1
 283 -1.4061040e-01 6.31e-02 3.54e-01  -7.5 5.66e+01 -10.3 1.00e+00 1.00e+00h  1
 284 -1.4061951e-01 9.31e+00 4.29e+01  -7.5 5.91e+03    -  1.58e-01 1.18e-01h  1
 285 -1.4061563e-01 1.65e+00 8.29e+00  -7.5 2.96e+02    -  1.00e+00 1.00e+00h  1
 286 -1.4061974e-01 1.91e+00 1.07e+01  -7.5 3.10e+02    -  1.00e+00 1.00e+00h  1
 287 -1.4062007e-01 9.14e-03 7.03e-02  -7.5 2.04e+01    -  1.00e+00 1.00e+00h  1
 288 -1.4062001e-01 3.98e-04 2.63e-03  -7.5 4.46e+00    -  1.00e+00 1.00e+00h  1
 289 -1.4062001e-01 1.95e-08 6.86e-07  -7.5 3.08e-02    -  1.00e+00 1.00e+00h  1
iter    objective    inf_pr   inf_du lg(mu)  ||d||  lg(rg) alpha_du alpha_pr  ls
 290 -1.4062001e-01 2.82e-10 1.86e-10  -7.5 1.18e-03    -  1.00e+00 1.00e+00h  1
 291 -1.4062327e-01 9.23e-02 2.40e+00  -9.0 2.59e+02    -  2.88e-01 3.04e-01h  1
 292 -1.4063017e-01 2.10e+01 7.95e+01  -9.0 1.17e+05    -  2.17e-02 8.78e-03h  1
 293 -1.4063789e-01 2.77e+01 1.19e+02  -9.0 3.62e+03    -  1.86e-01 2.32e-01h  1
 294 -1.4064253e-01 2.74e+01 1.26e+02  -9.0 4.34e+03    -  2.91e-01 1.62e-01h  1
 295 -1.4064965e-01 4.42e+01 1.33e+02  -9.0 3.43e+03    -  3.20e-01 3.66e-01h  1
 296 -1.4065355e-01 4.07e+01 2.54e+01  -9.0 1.55e+03    -  1.00e-02 8.19e-01h  1
 297 -1.4065068e-01 1.55e-01 7.70e+00  -9.0 1.02e+02    -  4.01e-02 1.00e+00h  1
 298 -1.4065130e-01 8.47e-02 7.37e-01  -9.0 6.42e+01    -  1.00e+00 1.00e+00h  1
 299 -1.4065129e-01 2.12e-02 8.98e-02  -9.0 3.22e+01    -  1.00e+00 1.00e+00h  1
iter    objective    inf_pr   inf_du lg(mu)  ||d||  lg(rg) alpha_du alpha_pr  ls
 300 -1.4065129e-01 6.75e-08 1.75e-05  -9.0 3.78e-02    -  1.00e+00 1.00e+00h  1
 301 -1.4065129e-01 3.14e-10 2.60e-12  -9.0 2.80e-05    -  1.00e+00 1.00e+00h  1

Number of Iterations....: 301

                                   (scaled)                 (unscaled)
Objective...............:  -1.4065128916509656e-01   -1.4065128916509656e-01
Dual infeasibility......:   2.6033874830759009e-12    2.6033874830759009e-12
Constraint violation....:   3.1397286712805256e-10    3.1397286712805256e-10
Complementarity.........:   9.0909098742513500e-10    9.0909098742513500e-10
Overall NLP error.......:   9.0909098742513500e-10    9.0909098742513500e-10


Number of objective function evaluations             = 458
Number of objective gradient evaluations             = 297
Number of equality constraint evaluations            = 458
Number of inequality constraint evaluations          = 459
Number of equality constraint Jacobian evaluations   = 306
Number of inequality constraint Jacobian evaluations = 306
Number of Lagrangian Hessian evaluations             = 301
Total CPU secs in IPOPT (w/o function evaluations)   =    125.183
Total CPU secs in NLP function evaluations           =      5.137

EXIT: Optimal Solution Found.
